7	14	6	5	6	6	9	17	6	5
12	10	2	3	8	14	9	16	4	11
14	1	2	8	8	18	5	10	14	15
17	2	3	3	4	5	2	15	1	11
13	11	17	10	7	2	4	9	19	8
17	14	18	16	16	15	16	8	8	16
2	18	9	9	18	7	18	7	1	2
3	8	14	13	14	1	6	7	9	12
8	3	20	5	14	7	16	5	20	18
